NAME /Users/henri/Research/solvers/instances/idol-instances/robust/collection/cbp_Subramanyam_et_al_2020/CapBud_N10_3/models/uncertain_technology_matrix/
ROWS
 N  OBJ
 L  capacity
 L  c_530
 L  c_531
 L  c_532
 L  c_533
 L  c_534
 L  c_535
 L  c_536
 L  c_537
 L  c_538
 L  c_539
COLUMNS
    MARKER    'MARKER'                 'INTORG'
    x_0        OBJ        4.93591
    x_0        c_530      1
    x_0        capacity   0.987181
    x_1        OBJ        1.52283
    x_1        c_531      1
    x_1        capacity   0.304566
    x_2        OBJ        6.16941
    x_2        c_532      1
    x_2        capacity   1.23388
    x_3        OBJ        7.39508
    x_3        c_533      1
    x_3        capacity   1.47902
    x_4        OBJ        7.03966
    x_4        c_534      1
    x_4        capacity   1.40793
    x_5        OBJ        9.3208
    x_5        c_535      1
    x_5        capacity   1.86416
    x_6        OBJ        6.01714
    x_6        c_536      1
    x_6        capacity   1.20343
    x_7        OBJ        5.95197
    x_7        c_537      1
    x_7        capacity   1.19039
    x_8        OBJ        7.36985
    x_8        c_538      1
    x_8        capacity   1.47397
    x_9        OBJ        7.25784
    x_9        c_539      1
    x_9        capacity   1.45157
    y_0        OBJ        3.94872
    y_0        c_530      1
    y_0        capacity   0.987181
    y_1        OBJ        1.21826
    y_1        c_531      1
    y_1        capacity   0.304566
    y_2        OBJ        4.93552
    y_2        c_532      1
    y_2        capacity   1.23388
    y_3        OBJ        5.91606
    y_3        c_533      1
    y_3        capacity   1.47902
    y_4        OBJ        5.63172
    y_4        c_534      1
    y_4        capacity   1.40793
    y_5        OBJ        7.45664
    y_5        c_535      1
    y_5        capacity   1.86416
    y_6        OBJ        4.81371
    y_6        c_536      1
    y_6        capacity   1.20343
    y_7        OBJ        4.76158
    y_7        c_537      1
    y_7        capacity   1.19039
    y_8        OBJ        5.89588
    y_8        c_538      1
    y_8        capacity   1.47397
    y_9        OBJ        5.80627
    y_9        c_539      1
    y_9        capacity   1.45157
    MARKER    'MARKER'                 'INTEND'
RHS
    RHS       capacity   31.4902
    RHS       c_530      1
    RHS       c_531      1
    RHS       c_532      1
    RHS       c_533      1
    RHS       c_534      1
    RHS       c_535      1
    RHS       c_536      1
    RHS       c_537      1
    RHS       c_538      1
    RHS       c_539      1
BOUNDS
 LI BND       x_0        0
 UI BND       x_0        1
 LI BND       x_1        0
 UI BND       x_1        1
 LI BND       x_2        0
 UI BND       x_2        1
 LI BND       x_3        0
 UI BND       x_3        1
 LI BND       x_4        0
 UI BND       x_4        1
 LI BND       x_5        0
 UI BND       x_5        1
 LI BND       x_6        0
 UI BND       x_6        1
 LI BND       x_7        0
 UI BND       x_7        1
 LI BND       x_8        0
 UI BND       x_8        1
 LI BND       x_9        0
 UI BND       x_9        1
 LI BND       y_0        0
 UI BND       y_0        1
 LI BND       y_1        0
 UI BND       y_1        1
 LI BND       y_2        0
 UI BND       y_2        1
 LI BND       y_3        0
 UI BND       y_3        1
 LI BND       y_4        0
 UI BND       y_4        1
 LI BND       y_5        0
 UI BND       y_5        1
 LI BND       y_6        0
 UI BND       y_6        1
 LI BND       y_7        0
 UI BND       y_7        1
 LI BND       y_8        0
 UI BND       y_8        1
 LI BND       y_9        0
 UI BND       y_9        1
ENDATA
